
        $ From http://www.csplib.org/Problems/prob009/data/helmut.pdf
        $ Problem number 161
        $ Sequence length : 25
        language ESSENCE' 1.0
        letting sizemaster be 535
        letting sizes be sequence(2,8,26,27,36,41,45,57,62,77,88,95,97,99,101,102,109,114,117,118,141,147,168,192,226)
        